3 32 1 10
18 9 17 1 18 14 11 14 4 7 16 17 20 6 14 12 5 9 19 12 19 13 19 3 14 1 19 15 5 5 12 2 
7.95 6.86 7.96 1.54 6.41 6.95 4.7 1.65 5.02 0.6 3.14 0.18 1.78 6.64 7.17 5.9 4.68 7.23 2.87 5.49 2.62 1.9 1.38 0.7 1.48 6.29 5.34 1.21 2.29 7.11 2.53 4.53 
4 4 4 4 4 4 4 4 4 4 4 4 4 4 4 4 4 4 4 4 4 4 4 4 4 4 4 4 4 4 4 4 
6.76 2.35 0.75 6.03 7.59 6.2 3.32 7.07 6.62 1.05 6.59 4.97 5.46 3.34 0.42 5.73 5.24 3.66 3.57 7.06 2.48 7.4 4.15 0.33 5.32 1.27 3.12 4.95 3.27 2.09 1.72 5.01 
1 1 1 1 1 1 1 1 1 1 1 1 1 1 1 1 1 1 1 1 1 1 1 1 1 1 1 1 1 1 1 1 
1 1 1 1 1 1 1 1 1 1 1 1 1 1 1 1 1 1 1 1 1 1 1 1 1 1 1 1 1 1 1 1 
1 1 1 1 1 1 1 1 1 1 1 1 1 1 1 1 1 1 1 1 1 1 1 1 1 1 1 1 1 1 1 1 
0.01 0.01 0.01 0.01 0.01 0.01 0.01 0.01 0.01 0.01 0.01 0.01 0.01 0.01 0.01 0.01 0.01 0.01 0.01 0.01 0.01 0.01 0.01 0.01 0.01 0.01 0.01 0.01 0.01 0.01 0.01 0.01 
0.02 0.02 0.02 0.02 0.02 0.02 0.02 0.02 0.02 0.02 0.02 0.02 0.02 0.02 0.02 0.02 0.02 0.02 0.02 0.02 0.02 0.02 0.02 0.02 0.02 0.02 0.02 0.02 0.02 0.02 0.02 0.02 
1 1 1 1 1 1 1 1 1 1 1 1 1 1 1 1 1 1 1 1 1 1 1 1 1 1 1 1 1 1 1 1 
